
Log started (V20.1.0.0) Tue Aug  9 10:46:18 2022


Problem 'pp.lp' read.
Read time = 0.00 sec. (0.00 ticks)
Version identifier: 20.1.0.0 | 2020-11-10 | 9bedb6d68
Tried aggregator 1 time.
No LP presolve or aggregator reductions.
Presolve time = 0.00 sec. (0.00 ticks)

Iteration log . . .
Iteration:     1   Dual infeasibility =             2.666664
Iteration:     4   Dual objective     =            27.000000

Dual simplex - Optimal:  Objective =  2.7000000000e+01
Solution time =    0.00 sec.  Iterations = 4 (3)
Deterministic time = 0.01 ticks  (8.39 ticks/sec)


Variable Name           Solution Value
x1                            7.000000
x2                            8.000000
x6                            2.000000
All other variables matching '*' are 0.
Version identifier: 20.1.0.0 | 2020-11-10 | 9bedb6d68
Using devex.

Primal simplex - Optimal:  Objective =  2.7000000000e+01
Solution time =    0.00 sec.  Iterations = 0 (0)
Deterministic time = 0.00 ticks  (0.65 ticks/sec)


Variable Name           Solution Value
x1                            7.000000
x2                            8.000000
x6                            2.000000
All other variables matching '*' are 0.
